qe/outputs/qe/qe_queries_cbrdelay_obs_redo/T=5,eliminate=[I_0,I_1,I_2,I_3,I_4,L_3,L_4,C,lhs=B].smt2
; benchmark generated from python API
(set-info :status unknown)
(declare-fun S_0 () Real)
(declare-fun S_2 () Real)
(declare-fun S_4 () Real)
(declare-fun L_0 () Real)
(declare-fun A_0 () Real)
(declare-fun S_1 () Real)
(declare-fun L_2 () Real)
(declare-fun A_2 () Real)
(declare-fun L_1 () Real)
(declare-fun A_1 () Real)
(declare-fun A_3 () Real)
(declare-fun B () Real)
(declare-fun S_3 () Real)
(declare-fun A_4 () Real)
(assert
 (let (($x10803 (<= (+ (* (- 2.0) S_4) (* (- 1.0) A_0) (* 3.0 S_2) L_0) 0.0)))
 (let (($x34 (>= L_0 0.0)))
 (let (($x606 (>= B 5.0)))
 (let ((?x1066 (* (- 1.0) S_0)))
 (let ((?x6749 (* (- 2.0) S_4)))
 (let ((?x1038 (* (- 2.0) L_2)))
 (let ((?x1037 (* 2.0 A_2)))
 (let (($x21618 (or (<= (+ (* (- 1.0) S_4) (* 2.0 S_1) ?x1066) 0.0) (<= (+ ?x1037 ?x1038 ?x6749 S_1 ?x1066) 0.0))))
 (let ((?x347 (* (- 1.0) S_2)))
 (let ((?x233 (* (- 1.0) B)))
 (let ((?x369 (* (- 1.0) A_2)))
 (let (($x22231 (<= 0.0 (+ (* (- 1.0) A_1) S_2 L_1))))
 (let (($x23989 (or $x22231 (<= (+ ?x369 L_2 S_4 (* (- 2.0) S_2) (* 2.0 S_0)) 0.0))))
 (let (($x22213 (<= 0.0 (+ ?x369 L_2 S_3))))
 (let (($x2033 (<= (+ (* (- 1.0) S_4) B (* (- 1.0) A_1) (* 2.0 S_3) L_1) 0.0)))
 (let (($x23980 (or (not $x2033) $x22213 (not (<= 0.0 (+ S_4 ?x233 (* (- (/ 3.0 2.0)) S_3) (* (/ 1.0 2.0) S_0)))))))
 (let (($x14500 (<= (+ S_4 (* 2.0 A_1) (* (- 2.0) L_1) (* (- 3.0) S_3)) 0.0)))
 (let (($x23952 (or $x22213 (<= (+ (* (/ 1.0 2.0) S_4) (* (- 1.0) S_3) (* (/ 1.0 2.0) S_0)) 0.0) $x14500)))
 (let (($x21079 (not (<= 0.0 (+ (* (- 2.0) A_2) (* 2.0 L_2) S_4 B S_1)))))
 (let (($x61 (= L_2 L_1)))
 (let ((?x3657 (* (/ 1.0 2.0) S_0)))
 (let ((?x367 (* (- 1.0) A_1)))
 (let ((?x1819 (* (- (/ 1.0 2.0)) B)))
 (let ((?x2620 (* (- (/ 1.0 2.0)) L_2)))
 (let ((?x3474 (* (/ 1.0 2.0) A_2)))
 (let (($x22494 (<= 0.0 (+ ?x3474 ?x2620 ?x1819 ?x367 ?x3657 L_1))))
 (let (($x22495 (not $x22494)))
 (let (($x21579 (<= 0.0 (+ (* (- 1.0) L_2) L_1))))
 (let (($x22407 (or (not (<= (+ ?x1037 ?x1038 (* (- 1.0) S_4) ?x367 ?x233 L_0) 0.0)) $x21579 $x22495)))
 (let (($x22177 (<= 0.0 (+ (* (- (/ 3.0 2.0)) A_2) (* (/ 3.0 2.0) L_2) S_4 (* (/ 1.0 2.0) B) ?x3657))))
 (let ((?x215 (* (- 1.0) L_0)))
 (let ((?x1042 (* 2.0 L_2)))
 (let ((?x1041 (* (- 2.0) A_2)))
 (let (($x19751 (or $x61 (<= (+ ?x1041 ?x1042 (* 3.0 S_1) ?x1066 (* 2.0 B)) 0.0))))
 (let (($x9531 (<= (+ ?x1041 ?x1042 (* (- 1.0) L_1) A_1 (* 2.0 B) S_3) 0.0)))
 (let (($x3809 (<= (+ (* (- (/ 3.0 2.0)) A_2) (* (/ 3.0 2.0) L_2) (* (/ 3.0 2.0) B) S_3 ?x3657) 0.0)))
 (let (($x3418 (<= (+ ?x369 L_2 (* (- 1.0) A_0) (* 2.0 S_1) B L_0) 0.0)))
 (let ((?x2192 (* 3.0 B)))
 (let ((?x968 (* 2.0 A_1)))
 (let ((?x958 (* (- 2.0) L_1)))
 (let ((?x959 (* 3.0 L_2)))
 (let ((?x937 (* (- 3.0) A_2)))
 (let (($x23089 (not (<= (- 5.0) (+ ?x367 S_0 L_1)))))
 (let (($x23800 (or $x22213 $x23089 (<= (+ A_1 (* (- 1.0) L_1) (* (- 1.0) S_3)) (- 5.0)))))
 (let (($x12137 (<= (+ ?x1037 ?x1038 (* (- 1.0) S_4) L_1 ?x367 (* (- 2.0) B)) 0.0)))
 (let ((?x341 (* (- 1.0) S_1)))
 (let ((?x1896 (* (- 3.0) B)))
 (let ((?x3498 (* (- 3.0) L_2)))
 (let ((?x1073 (* 3.0 A_2)))
 (let ((?x1088 (* (- 1.0) A_0)))
 (let ((?x361 (* (- 1.0) S_4)))
 (let ((?x259 (* (- 1.0) L_2)))
 (let (($x18401 (or (<= (+ (* (- (/ 1.0 2.0)) S_4) ?x1088 (* (/ 3.0 2.0) S_1) L_0) 0.0) (<= (+ A_2 ?x259 ?x361 ?x1088 S_1 L_0) 0.0))))
 (let (($x7516 (<= (+ (* (- (/ 1.0 2.0)) S_4) (* (- (/ 1.0 2.0)) A_1) (* (/ 1.0 2.0) L_1) S_2) 0.0)))
 (let (($x23643 (or $x22213 (<= (+ ?x1088 (* (- 1.0) S_3) (* 2.0 S_1) L_0) 0.0))))
 (let ((?x2284 (* (- 4.0) B)))
 (let ((?x7842 (* (- 3.0) S_4)))
 (let ((?x8978 (* (- 4.0) L_2)))
 (let ((?x7832 (* 4.0 A_2)))
 (let (($x22244 (<= (+ A_2 ?x259 ?x361) (- 5.0))))
 (let (($x23578 (or $x22244 (<= (+ (* (- (/ 1.0 3.0)) S_4) (* (/ 1.0 3.0) S_0)) (- 5.0)) (<= (+ (* (- (/ 1.0 2.0)) S_4) (* (/ 1.0 2.0) A_1) (* (- (/ 1.0 2.0)) L_1)) (- 5.0)))))
 (let (($x38374 (or $x61 $x23089 (<= (+ ?x369 L_2 (* (- 1.0) L_1) A_1 B) (- 5.0)))))
 (let (($x23542 (or $x22213 (<= 0.0 (+ ?x367 (* (/ 1.0 2.0) S_3) ?x3657 L_1)) (<= (+ (* (- (/ 1.0 2.0)) S_3) ?x3657) (- 5.0)))))
 (let ((?x2096 (* 3.0 L_1)))
 (let ((?x2194 (* 2.0 S_0)))
 (let ((?x1644 (* (- 3.0) A_1)))
 (let ((?x1892 (* 2.0 B)))
 (let (($x51 (= L_1 L_0)))
 (let (($x39729 (or (<= (+ (* (- 2.0) B) ?x968 (* (- 1.0) S_3) ?x341 ?x958) 0.0) $x22213)))
 (let (($x13980 (or $x51 (<= (+ ?x1892 (* (- 2.0) A_1) S_2 S_0 (* 2.0 L_1)) 0.0))))
 (let ((?x2195 (+ S_4 (* 4.0 B) (* (- 4.0) A_1) (* 3.0 S_0) (* 4.0 L_1))))
 (let (($x39320 (or (<= (+ ?x361 ?x968 ?x1066 ?x958 (* (- 2.0) B)) 0.0) (<= (+ ?x1037 ?x1038 ?x6749 ?x233 A_1 ?x1066 (* (- 1.0) L_1)) 0.0))))
 (let ((?x1841 (* (/ 1.0 2.0) B)))
 (let ((?x1840 (* (/ 1.0 2.0) L_1)))
 (let ((?x1839 (* (- (/ 1.0 2.0)) A_1)))
 (let ((?x1646 (* (- (/ 1.0 2.0)) S_4)))
 (let (($x39077 (or $x61 (not (<= 0.0 (+ (* (/ 1.0 4.0) S_4) ?x367 (* (/ 3.0 4.0) S_0) L_1))) $x22494)))
 (let (($x22430 (<= 0.0 (+ (* (/ 1.0 4.0) S_4) ?x367 (* (/ 3.0 4.0) S_0) L_1))))
 (let (($x1577 (<= (+ ?x1896 (* 3.0 A_1) (* (- 2.0) S_3) ?x1066 (* (- 3.0) L_1)) 0.0)))
 (let (($x2052 (<= (+ (* (- 2.0) B) ?x968 ?x1088 (* (- 1.0) S_3) ?x958 L_0) 0.0)))
 (let (($x22807 (<= 0.0 (+ S_4 (* (- 2.0) B) A_1 (* (- 2.0) S_3) (* (- 1.0) L_1)))))
 (let (($x39211 (or (<= (+ S_4 (* (- 2.0) B) ?x968 (* (- 3.0) S_3) ?x958) 0.0) $x22213)))
 (let (($x6346 (<= (+ A_2 ?x259 ?x361 ?x233 A_1 ?x1088 (* (- 1.0) L_1) L_0) 0.0)))
 (let ((?x1848 (* (- (/ 3.0 2.0)) B)))
 (let ((?x1847 (* (- (/ 3.0 2.0)) L_1)))
 (let ((?x1845 (* (/ 3.0 2.0) A_1)))
 (let (($x39898 (or $x61 $x22494 (<= (+ (* (- (/ 1.0 2.0)) A_2) (* (/ 1.0 2.0) L_2) ?x1841 ?x3657) (- 5.0)))))
 (let (($x38524 (or (<= (+ ?x1646 ?x1845 ?x341 ?x1847 ?x1848) 0.0) (<= (+ A_2 ?x259 ?x361 ?x233 A_1 ?x341 (* (- 1.0) L_1)) 0.0))))
 (let (($x1064 (<= (+ A_2 ?x259 (* (- 2.0) A_1) S_0 (* 2.0 L_1) B) 0.0)))
 (let (($x39165 (or $x61 (not (<= 0.0 (+ ?x1041 ?x1042 S_4 A_1 (* (- 1.0) L_1)))))))
 (let (($x1069 (<= (+ ?x1041 ?x1042 (* 3.0 A_1) ?x1066 (* (- 3.0) L_1) ?x233) 0.0)))
 (let (($x39169 (or $x61 (<= (+ ?x1041 ?x1042 A_1 S_3 (* (- 1.0) L_1) B) 0.0))))
 (let (($x1054 (<= (+ A_1 ?x347 (* (- 1.0) L_1) ?x233) 0.0)))
 (let (($x108 (>= S_1 S_0)))
 (let (($x111 (>= S_2 S_1)))
 (let (($x114 (>= S_3 S_2)))
 (let (($x117 (>= S_4 S_3)))
 (let (($x119 (>= A_1 A_0)))
 (let (($x120 (>= A_2 A_1)))
 (let (($x122 (>= A_4 A_3)))
 (and (<= (+ A_2 ?x259) S_4) $x122 $x120 $x119 $x117 $x114 $x111 $x108 (or $x51 (not (<= 0.0 (+ (* (- 1.0) L_1) L_0)))) (<= (+ A_2 ?x259 (* (- 1.0) S_3) ?x233) 0.0) (or $x61 (<= (+ ?x369 L_2 A_1 (* (- 1.0) L_1)) (- 5.0))) $x1054 $x39169 (or $x61 $x1069) (or $x61 (<= (+ ?x937 ?x959 S_4 ?x968 ?x958 B) 0.0)) (or $x61 (<= (+ ?x369 L_2 S_2 B) 0.0)) (or $x51 (<= (+ ?x367 S_1 L_1 B) 0.0)) (or $x61 (<= (+ ?x369 L_2 ?x968 ?x1088 ?x958 ?x233 L_0) 0.0)) (or $x51 (<= (+ ?x1037 ?x1038 ?x361 ?x367 L_1 ?x233) 0.0)) (or $x61 (<= (+ ?x369 L_2 ?x968 ?x341 ?x958 ?x233) 0.0)) $x39165 (or $x51 $x1064) (or $x51 (<= (+ B ?x367 S_0 L_1) (- 5.0))) (or (not $x21579) $x61) $x38524 $x39898 (<= (+ ?x1646 (* (/ 1.0 2.0) A_1) (* (- (/ 1.0 2.0)) L_1) ?x1819) (- 5.0)) (or (<= (+ ?x1646 ?x1845 ?x1088 ?x1847 ?x1848 L_0) 0.0) $x6346) $x39211 (<= (+ ?x233 A_1 (* (- 1.0) S_3) (* (- 1.0) L_1)) (- 5.0)) (or $x22213 (not $x22807)) (or $x2052 $x22213) (or $x1577 $x22213) (or $x61 (<= (+ ?x369 L_2 S_1 B) (- 5.0))) (or $x61 $x22430 (<= (+ ?x1041 ?x1042 S_4 ?x1892 S_0) 0.0)) $x39077 (or $x51 (<= (+ ?x1646 ?x1839 S_2 ?x1840 ?x1841) 0.0)) $x39320 (or $x51 (not (<= 0.0 (+ ?x369 L_2 S_4 ?x367 S_0 L_1)))) (or $x51 (<= ?x2195 0.0)) $x13980 (or $x51 (<= (+ ?x2192 ?x1644 S_3 ?x2194 ?x2096) 0.0)) (or $x22231 (<= (+ ?x347 S_0) (- 5.0))) (or (<= (+ ?x3474 ?x2620 ?x1819 ?x347 ?x3657) 0.0) $x22231) (or $x22231 (<= (+ S_3 (* (- 3.0) S_2) ?x2194) 0.0)) (or $x22231 (not (<= 0.0 (+ S_4 ?x233 (* (- 3.0) S_2) ?x2194)))) (or (<= (+ (* (/ 1.0 4.0) S_4) ?x347 (* (/ 3.0 4.0) S_0)) 0.0) $x22231) (or (<= (+ ?x1646 (* (/ 1.0 2.0) S_1)) (- 5.0)) $x22244) (or $x22213 (<= (+ (* (- 1.0) S_3) S_1) (- 5.0))) (<= (+ ?x1037 ?x1038 ?x361 (* (- 2.0) B) ?x347) 0.0) $x39729 (or $x22213 (<= (+ S_4 (* (- 3.0) S_3) (* 2.0 S_1)) 0.0)) (or $x51 (<= (+ ?x369 L_2 ?x367 S_3 S_0 L_1 B) 0.0)) (or $x51 (not (<= 0.0 (+ S_4 ?x1892 ?x1644 ?x2194 ?x2096)))) $x23542 $x38374 (or $x61 (<= (+ ?x1041 ?x1042 S_3 S_1 ?x1892) 0.0)) $x23578 (or $x22213 (<= (+ (* (- 2.0) S_3) (* 3.0 S_1) ?x1066) 0.0)) (<= (+ ?x7832 ?x8978 ?x7842 ?x2284 ?x1066) 0.0) $x23643 $x7516 $x18401 (or $x22213 (not (<= 0.0 (+ S_4 ?x233 (* (- 2.0) S_3) S_1)))) (or $x61 (<= (+ ?x937 ?x959 S_4 (* 2.0 S_1) ?x2192) 0.0)) (<= (+ ?x1073 ?x3498 ?x6749 ?x1896 ?x1088 L_0) 0.0) (<= (+ ?x1073 ?x3498 ?x6749 ?x1896 ?x341) 0.0) $x12137 $x23800 (or (<= (+ ?x937 ?x959 S_4 ?x958 ?x968 ?x2192) 0.0) $x21579 $x22495) (or $x61 $x3418) (or $x61 $x3809 $x9531) $x19751 (or $x61 (<= (+ ?x1041 ?x1042 S_4 B A_1 ?x215) 0.0) (not $x22177)) $x22407 (or $x61 $x21079) $x23952 $x23980 $x23989 (or $x22231 (<= (+ ?x369 L_2 S_3 ?x347 S_0) 0.0)) (or $x22231 (not (<= 0.0 (+ ?x369 L_2 S_4 ?x233 ?x347 S_0)))) $x21618 $x606 $x34 (<= (+ ?x1088 S_0 L_0) 0.0) (not (>= (+ L_2 S_4 (* (- 1.0) A_3)) 0.0)) (<= (+ ?x367 S_1 L_1) 0.0) (<= (+ ?x369 L_2 S_2) 0.0) (<= (+ ?x361 S_2) (- 5.0)) (<= (+ ?x6749 (* 3.0 S_2) ?x341) 0.0) $x10803 (<= (+ ?x7842 (* 4.0 S_2) ?x1066) 0.0)))))))))))))))))))))))))))))))))))))))))))))))))))))))))))))))))))))))))))))))))))))))))))))))))))))))
(check-sat)
